1000
[203,205,217,218,225,230,234,241,242,244,250,252,258,263,268,271,298,301,311,318,321,327,340,349,352,362,370,372,374,394,395,413,414,432,433,448,452,453,457,460,464,466,473,481,485,486,487,491,518,524,532,536,545,548,553,562,575,579,580,592,593,599,617,618,624,629,632,633,645,648,653,665,666,671,677,686,690,703,716,718,725,733,741,744,745,752,753,766,769,788,793,799]
[1,1,1,1,1,1,1,1,1,1,1,1,1,1,1,2,1,1,1,1,1,1,1,1,2,1,1,1,1,1,1,1,1,1,1,1,1,1,1,2,1,1,1,1,1,1,1,1,1,1,1,1,1,2,1,1,1,1,1,1,1,1,1,1,1,1,1,1,1,1,2,1,1,1,1,3,1,1,1,1,1,1,1,1,1,1,1,1,2,1,1,1]
